UNSAT
The proof for unsat is:
([-2, 3] [-3, -4, 6]) -> [-2, -4, 6]
([-2, -4, 6] [-2, 4]) -> [-2, 6]
([-2, 6] [-1, 2]) -> [-1, 6]
([-1, 6] [1]) -> [6]
([6] [-5, -6]) -> [-5]
([-5] [-1, 5]) -> [-1]
([-1] [1]) -> []
